0	31	193	98	22	111	148	159	143	44	76	
95	0	199	40	163	155	168	168	92	124	155	
139	56	0	179	25	170	172	148	113	61	145	
52	85	100	0	105	147	33	128	63	100	98	
191	131	152	60	0	150	196	128	21	65	73	
168	116	135	100	20	0	149	83	125	185	141	
157	111	194	101	131	157	0	27	26	88	132	
47	45	188	198	51	102	170	0	114	152	197	
59	144	179	61	166	76	70	71	0	192	171	
179	146	117	129	174	121	126	165	27	0	58	
195	68	177	100	25	108	117	40	54	161	0	
